17 -25 -26 0
-18 23 -17 0
-25 -26 0
d 17 -25 -26 0
-17 -3 25 0
18 -26 0
17 -26 0
-26 0
-17 -18 0
d 23 -17 -18 0
-18 0
3 0
11 0
17 0
-15 0
-19 0
-1 0
-5 0
25 0
-9 0
-13 0
2 0
16 0
4 0
20 0
-23 0
-14 0
24 0
0
